WARNING: for repeatability, setting FPU to use double precision
============================[ Problem Statistics ]=============================
|                                                                             |
|  Number of variables:            50                                         |
|  Number of clauses:             218                                         |
|  Parse time:                   0.00 s                                       |
|                                                                             |
============================[ Search Statistics ]==============================
| Conflicts |          ORIGINAL         |          LEARNT          | Progress |
|           |    Vars  Clauses Literals |    Limit  Clauses Lit/Cl |          |
===============================================================================
===============================================================================
restarts              : 1
conflicts             : 40             (312500 /sec)
decisions             : 50             (0.00 % random) (390625 /sec)
propagations          : 551            (4304688 /sec)
conflict literals     : 136            (20.47 % deleted)
Memory used           : 20.00 MB
CPU time              : 0.000128 s

UNSATISFIABLE
